1227138
0,4,34,97,100,33,51,28,58,83,50,1,80,45,93,106,15,24,62,19,43,31,94,42,84,60,5,29,102,55,73,91,3,66,78,22,14,21,103,57,53,101,99,52,16,79,47,20,12,92,95,86,61,18,72,41,59,105,107,77,32,54,67,39,7,27,35,11,64,87,6,17,49,75,98,104,70,46,96,88,90,10,48,30,38,13,69,68,26,85,74,56,71,37,40,25,36,8,76,65,9,63,23,108,89,2,82,44,81,0